/*Objective Function*/
max: 420A1 +420A2 +420A3 +360B1 +360B2 +360B3 +300C1 +300C2 +300C3;

/*Constraints*/
A1 + B1 + C1 <= 750;
A2 + B2 + C2 <= 900;
A3 + B3 + C3 <= 450;
20 A1 +15 B1 +12 C1 <= 13000;
20 A2 +15 B2 +12 C2 <= 12000;
20 A3 +15 B3 +12 C3 <= 5000;
A1 +A2 +A3 <= 900;
B1 +B2 +B3 <= 1200;
C1 +C2 +C3 <= 750;
A1/750 + B1/750 + C1/750 = A2/900 + B2/900 + C2/900;
A1/750 + B1/750 + C1/750 = A3/450 + B3/450 + C3/450;









